; benchmark generated from python API
(set-info :status unknown)
(declare-fun x_days () Int)
(declare-fun y_days () Int)
(declare-fun z_days () Int)
(assert
 (>= x_days (- 36525)))
(assert
 (<= x_days 36525))
(assert
 (= x_days 8371))
(assert
 (>= y_days (- 36525)))
(assert
 (<= y_days 36525))
(assert
 (>= z_days (- 36525)))
(assert
 (<= z_days 36525))
(assert
 (let (($x29 (or (and (= (mod 2000 4) 0) (and (distinct (mod 2000 100) 0) true)) (= (mod 2000 400) 0))))
 (let ((?x36 (ite (= 3 2) (ite $x29 31 31) (ite (= 3 1) (ite $x29 0 0) 0))))
 (let ((?x40 (ite $x29 60 59)))
 (let ((?x41 (ite (= 3 3) ?x40 ?x36)))
 (let ((?x46 (ite (= 3 4) (ite $x29 91 90) ?x41)))
 (let ((?x52 (ite (= 3 5) (ite $x29 121 120) ?x46)))
 (let ((?x58 (ite (= 3 6) (ite $x29 152 151) ?x52)))
 (let ((?x64 (ite (= 3 7) (ite $x29 182 181) ?x58)))
 (let ((?x70 (ite (= 3 8) (ite $x29 213 212) ?x64)))
 (let ((?x76 (ite (= 3 9) (ite $x29 244 243) ?x70)))
 (let ((?x82 (ite (= 3 10) (ite $x29 274 273) ?x76)))
 (let ((?x88 (ite (= 3 11) (ite $x29 305 304) ?x82)))
 (let ((?x16 (- (+ (* 365 (- 2000 1)) (div (- 2000 1) 4)) (div (- 2000 1) 100))))
 (let ((?x95 (+ (+ ?x16 (div (- 2000 1) 400)) (ite (= 3 12) (ite $x29 335 334) ?x88))))
 (let ((?x97 (+ ?x95 (- 1 1))))
 (let ((?x1456 (+ x_days ?x97)))
 (let ((?x341 (mod ?x1456 146097)))
 (let ((?x288 (div ?x341 36524)))
 (let ((?x1252 (ite (<= 4 ?x288) 3 ?x288)))
 (let ((?x518 (- ?x341 (* ?x1252 36524))))
 (let ((?x1291 (mod ?x518 1461)))
 (let ((?x231 (div ?x1291 365)))
 (let ((?x526 (ite (<= 4 ?x231) 3 ?x231)))
 (let ((?x309 (+ (+ (* (div ?x1456 146097) 400) (* ?x1252 100)) (* (div ?x518 1461) 4))))
 (let ((?x143 (+ (+ ?x309 ?x526) 1)))
 (let (($x387 (or (and (= (mod ?x143 4) 0) (and (distinct (mod ?x143 100) 0) true)) (= (mod ?x143 400) 0))))
 (let ((?x1307 (- ?x1291 (* ?x526 365))))
 (let ((?x183 (ite $x387 31 31)))
 (let (($x576 (>= ?x1307 ?x183)))
 (let ((?x1359 (ite $x576 (+ (- ?x1307 ?x183) 1) (+ (- ?x1307 (ite $x387 0 0)) 1))))
 (let ((?x612 (ite $x387 60 59)))
 (let (($x289 (>= ?x1307 ?x612)))
 (let ((?x1039 (ite $x387 91 90)))
 (let (($x204 (>= ?x1307 ?x1039)))
 (let ((?x707 (ite $x204 (+ (- ?x1307 ?x1039) 1) (ite $x289 (+ (- ?x1307 ?x612) 1) ?x1359))))
 (let ((?x377 (ite $x387 121 120)))
 (let (($x966 (>= ?x1307 ?x377)))
 (let ((?x641 (ite $x387 152 151)))
 (let (($x160 (>= ?x1307 ?x641)))
 (let ((?x670 (ite $x160 (+ (- ?x1307 ?x641) 1) (ite $x966 (+ (- ?x1307 ?x377) 1) ?x707))))
 (let ((?x108 (ite $x387 182 181)))
 (let (($x470 (>= ?x1307 ?x108)))
 (let ((?x263 (ite $x387 213 212)))
 (let (($x399 (>= ?x1307 ?x263)))
 (let ((?x1627 (ite $x399 (+ (- ?x1307 ?x263) 1) (ite $x470 (+ (- ?x1307 ?x108) 1) ?x670))))
 (let ((?x660 (ite $x387 244 243)))
 (let (($x1106 (>= ?x1307 ?x660)))
 (let ((?x389 (ite $x387 274 273)))
 (let (($x830 (>= ?x1307 ?x389)))
 (let ((?x216 (ite $x830 (+ (- ?x1307 ?x389) 1) (ite $x1106 (+ (- ?x1307 ?x660) 1) ?x1627))))
 (let ((?x343 (ite $x387 305 304)))
 (let (($x1184 (>= ?x1307 ?x343)))
 (let ((?x135 (ite $x387 335 334)))
 (let (($x733 (>= ?x1307 ?x135)))
 (let ((?x558 (ite $x733 (+ (- ?x1307 ?x135) 1) (ite $x1184 (+ (- ?x1307 ?x343) 1) ?x216))))
 (let ((?x100 (ite $x966 5 (ite $x204 4 (ite $x289 3 (ite $x576 2 1))))))
 (let ((?x257 (ite $x1106 9 (ite $x399 8 (ite $x470 7 (ite $x160 6 ?x100))))))
 (let ((?x1471 (ite $x733 12 (ite $x1184 11 (ite $x830 10 ?x257)))))
 (let ((?x430 (- (+ ?x1471 1) 1)))
 (let ((?x130 (+ (mod ?x430 12) 1)))
 (let ((?x503 (ite (or (= ?x130 4) (= ?x130 6) (= ?x130 9) (= ?x130 11)) 30 31)))
 (let (($x702 (and (= (mod (+ (+ ?x143 0) (div ?x430 12)) 4) 0) (and (distinct (mod (+ (+ ?x143 0) (div ?x430 12)) 100) 0) true))))
 (let (($x1335 (or $x702 (= (mod (+ (+ ?x143 0) (div ?x430 12)) 400) 0))))
 (let ((?x229 (ite (= ?x130 2) (ite $x1335 29 28) ?x503)))
 (let (($x525 (> 1 ?x558)))
 (let ((?x1008 (ite (= 2 ?x130) (ite $x1335 31 31) (ite (= 1 ?x130) (ite $x1335 0 0) 0))))
 (let ((?x332 (ite (= 4 ?x130) (ite $x1335 91 90) (ite (= 3 ?x130) (ite $x1335 60 59) ?x1008))))
 (let ((?x180 (ite (= 6 ?x130) (ite $x1335 152 151) (ite (= 5 ?x130) (ite $x1335 121 120) ?x332))))
 (let ((?x235 (ite (= 8 ?x130) (ite $x1335 213 212) (ite (= 7 ?x130) (ite $x1335 182 181) ?x180))))
 (let ((?x925 (ite (= 10 ?x130) (ite $x1335 274 273) (ite (= 9 ?x130) (ite $x1335 244 243) ?x235))))
 (let ((?x126 (ite (= 12 ?x130) (ite $x1335 335 334) (ite (= 11 ?x130) (ite $x1335 305 304) ?x925))))
 (let ((?x176 (+ (* 365 (- (+ (+ ?x143 0) (div ?x430 12)) 1)) (div (- (+ (+ ?x143 0) (div ?x430 12)) 1) 4))))
 (let ((?x841 (+ (- ?x176 (div (- (+ (+ ?x143 0) (div ?x430 12)) 1) 100)) (div (- (+ (+ ?x143 0) (div ?x430 12)) 1) 400))))
 (let ((?x562 (+ (+ ?x841 ?x126) (- (ite $x525 1 (ite (> ?x558 ?x229) ?x229 ?x558)) 1))))
 (= y_days (- (+ ?x562 0) ?x97)))))))))))))))))))))))))))))))))))))))))))))))))))))))))))))))))))))))))))))
(assert
 (let (($x29 (or (and (= (mod 2000 4) 0) (and (distinct (mod 2000 100) 0) true)) (= (mod 2000 400) 0))))
 (let ((?x36 (ite (= 3 2) (ite $x29 31 31) (ite (= 3 1) (ite $x29 0 0) 0))))
 (let ((?x40 (ite $x29 60 59)))
 (let ((?x41 (ite (= 3 3) ?x40 ?x36)))
 (let ((?x46 (ite (= 3 4) (ite $x29 91 90) ?x41)))
 (let ((?x52 (ite (= 3 5) (ite $x29 121 120) ?x46)))
 (let ((?x58 (ite (= 3 6) (ite $x29 152 151) ?x52)))
 (let ((?x64 (ite (= 3 7) (ite $x29 182 181) ?x58)))
 (let ((?x70 (ite (= 3 8) (ite $x29 213 212) ?x64)))
 (let ((?x76 (ite (= 3 9) (ite $x29 244 243) ?x70)))
 (let ((?x82 (ite (= 3 10) (ite $x29 274 273) ?x76)))
 (let ((?x88 (ite (= 3 11) (ite $x29 305 304) ?x82)))
 (let ((?x16 (- (+ (* 365 (- 2000 1)) (div (- 2000 1) 4)) (div (- 2000 1) 100))))
 (let ((?x95 (+ (+ ?x16 (div (- 2000 1) 400)) (ite (= 3 12) (ite $x29 335 334) ?x88))))
 (let ((?x97 (+ ?x95 (- 1 1))))
 (let ((?x1456 (+ x_days ?x97)))
 (let ((?x341 (mod ?x1456 146097)))
 (let ((?x288 (div ?x341 36524)))
 (let ((?x1252 (ite (<= 4 ?x288) 3 ?x288)))
 (let ((?x518 (- ?x341 (* ?x1252 36524))))
 (let ((?x1291 (mod ?x518 1461)))
 (let ((?x231 (div ?x1291 365)))
 (let ((?x526 (ite (<= 4 ?x231) 3 ?x231)))
 (let ((?x309 (+ (+ (* (div ?x1456 146097) 400) (* ?x1252 100)) (* (div ?x518 1461) 4))))
 (let ((?x143 (+ (+ ?x309 ?x526) 1)))
 (let (($x387 (or (and (= (mod ?x143 4) 0) (and (distinct (mod ?x143 100) 0) true)) (= (mod ?x143 400) 0))))
 (let ((?x1307 (- ?x1291 (* ?x526 365))))
 (let ((?x183 (ite $x387 31 31)))
 (let (($x576 (>= ?x1307 ?x183)))
 (let ((?x1359 (ite $x576 (+ (- ?x1307 ?x183) 1) (+ (- ?x1307 (ite $x387 0 0)) 1))))
 (let ((?x612 (ite $x387 60 59)))
 (let (($x289 (>= ?x1307 ?x612)))
 (let ((?x1039 (ite $x387 91 90)))
 (let (($x204 (>= ?x1307 ?x1039)))
 (let ((?x707 (ite $x204 (+ (- ?x1307 ?x1039) 1) (ite $x289 (+ (- ?x1307 ?x612) 1) ?x1359))))
 (let ((?x377 (ite $x387 121 120)))
 (let (($x966 (>= ?x1307 ?x377)))
 (let ((?x641 (ite $x387 152 151)))
 (let (($x160 (>= ?x1307 ?x641)))
 (let ((?x670 (ite $x160 (+ (- ?x1307 ?x641) 1) (ite $x966 (+ (- ?x1307 ?x377) 1) ?x707))))
 (let ((?x108 (ite $x387 182 181)))
 (let (($x470 (>= ?x1307 ?x108)))
 (let ((?x263 (ite $x387 213 212)))
 (let (($x399 (>= ?x1307 ?x263)))
 (let ((?x1627 (ite $x399 (+ (- ?x1307 ?x263) 1) (ite $x470 (+ (- ?x1307 ?x108) 1) ?x670))))
 (let ((?x660 (ite $x387 244 243)))
 (let (($x1106 (>= ?x1307 ?x660)))
 (let ((?x389 (ite $x387 274 273)))
 (let (($x830 (>= ?x1307 ?x389)))
 (let ((?x216 (ite $x830 (+ (- ?x1307 ?x389) 1) (ite $x1106 (+ (- ?x1307 ?x660) 1) ?x1627))))
 (let ((?x343 (ite $x387 305 304)))
 (let (($x1184 (>= ?x1307 ?x343)))
 (let ((?x135 (ite $x387 335 334)))
 (let (($x733 (>= ?x1307 ?x135)))
 (let ((?x558 (ite $x733 (+ (- ?x1307 ?x135) 1) (ite $x1184 (+ (- ?x1307 ?x343) 1) ?x216))))
 (let ((?x100 (ite $x966 5 (ite $x204 4 (ite $x289 3 (ite $x576 2 1))))))
 (let ((?x257 (ite $x1106 9 (ite $x399 8 (ite $x470 7 (ite $x160 6 ?x100))))))
 (let ((?x1471 (ite $x733 12 (ite $x1184 11 (ite $x830 10 ?x257)))))
 (let ((?x773 (- (+ ?x1471 0) 1)))
 (let ((?x182 (+ (mod ?x773 12) 1)))
 (let ((?x870 (ite (or (= ?x182 4) (= ?x182 6) (= ?x182 9) (= ?x182 11)) 30 31)))
 (let (($x164 (and (= (mod (+ (+ ?x143 0) (div ?x773 12)) 4) 0) (and (distinct (mod (+ (+ ?x143 0) (div ?x773 12)) 100) 0) true))))
 (let (($x1137 (or $x164 (= (mod (+ (+ ?x143 0) (div ?x773 12)) 400) 0))))
 (let ((?x1149 (ite (= ?x182 2) (ite $x1137 29 28) ?x870)))
 (let (($x525 (> 1 ?x558)))
 (let ((?x1461 (ite (= 2 ?x182) (ite $x1137 31 31) (ite (= 1 ?x182) (ite $x1137 0 0) 0))))
 (let ((?x1334 (ite (= 4 ?x182) (ite $x1137 91 90) (ite (= 3 ?x182) (ite $x1137 60 59) ?x1461))))
 (let ((?x1000 (ite (= 6 ?x182) (ite $x1137 152 151) (ite (= 5 ?x182) (ite $x1137 121 120) ?x1334))))
 (let ((?x1320 (ite (= 8 ?x182) (ite $x1137 213 212) (ite (= 7 ?x182) (ite $x1137 182 181) ?x1000))))
 (let ((?x373 (ite (= 10 ?x182) (ite $x1137 274 273) (ite (= 9 ?x182) (ite $x1137 244 243) ?x1320))))
 (let ((?x866 (ite (= 12 ?x182) (ite $x1137 335 334) (ite (= 11 ?x182) (ite $x1137 305 304) ?x373))))
 (let ((?x727 (+ (* 365 (- (+ (+ ?x143 0) (div ?x773 12)) 1)) (div (- (+ (+ ?x143 0) (div ?x773 12)) 1) 4))))
 (let ((?x768 (+ (- ?x727 (div (- (+ (+ ?x143 0) (div ?x773 12)) 1) 100)) (div (- (+ (+ ?x143 0) (div ?x773 12)) 1) 400))))
 (let ((?x1311 (+ (+ ?x768 ?x866) (- (ite $x525 1 (ite (> ?x558 ?x1149) ?x1149 ?x558)) 1))))
 (= z_days (- (+ ?x1311 30) ?x97)))))))))))))))))))))))))))))))))))))))))))))))))))))))))))))))))))))))))))))
(assert
 (not (= y_days z_days)))
(check-sat)
